benchmarks_vrp/CMT3/tsp_classic/CMT3_3.vrp
NAME: CMT3_3
TYPE: CVRP
COMMENT: 826.14 - Cluster Nr.3
DIMENSION: 14
CAPACITY: 200
EDGE_WEIGHT_TYPE: EUC_2D
NODE_COORD_TYPE: TWOD_COORDS
NODE_COORD_SECTION: 
4 20 40
5 37 56
8 20 50
10 35 40
3 30 60
7 24 58
13 31 52
12 26 35
1 41 49
9 35 35
11 26 52
14 15 47
2 37 47
6 27 43
DEPOT_SECTION: 
9
-1
DEMAND_SECTION: 
9 0
8 5
13 27
6 9
3 16
10 16
1 10
5 5
7 19
14 16
11 9
2 6
12 15
4 12
EOF
