benchmarks_vrp/CMT3/tsp_classic/CMT3_3.tour
NAME: CMT3_3 solution
TYPE: TOUR
TOUR_SECTION:
9 10 2 1 5 13 3 7 11 8 14 4 6 12 -1
-1
EOF